 C  H 
 1.0000000000000000
    18.0000000000000000    0.0000000000000000    0.0000000000000000
     0.0000000000000000   24.0000000000000000    0.0000000000000000
     0.0000000000000000    0.0000000000000000   17.9999999999999964
 C   H  
  36  16
Cartesian
  9.0105758364825963 13.4227077145985803  2.9633254434843077
  9.0133004870846243 14.8445597754662106  2.9633254434843077
 10.2438067495437153 12.7057676822564218  2.9633254434843077
  7.7746908047055552 12.7101037684779641  2.9633254434843077
 10.2548481509754961 15.5640624382603079  2.9633254434843077
  7.7743564483371941 15.5682303218081444  2.9633254434843077
 11.4776827066884728 13.4350085468908382  2.9633254434843077
  6.5434118757725939 13.4434488926798377  2.9633254434843077
 11.4612153950219984 14.8355576121013648  2.9633254434843077
  6.5652086143429429 14.8441461216721216  2.9633254434843077
 10.2479263744674718 11.2785038830718047  2.9633254434843077
  7.7655051241999207 11.2827791645184554  2.9633254434843077
  9.0054669556540077 10.5681185772087858  2.9633254434843077
 10.2282621540473819 16.9828855818853057  2.9633254434843077
  7.8066180629691440 16.9869518158468935  2.9633254434843077
 12.6970833804603558 12.6964427844266528  2.9633254434843077
  5.3212549540432370 12.7092905898852297  2.9633254434843077
 11.4886406128069982 10.5716223870247781  2.9633254434843077
  6.5222680661466281 10.5801262905657794  2.9633254434843077
  9.0186268167249075 17.6737664051472194  2.9633254434843077
 12.6953697708572175 11.3255639846238321  2.9633254434843077
  5.3181351853628005 11.3382750946473188  2.9633254434843077
  9.0030167173598148  9.1421926244229255  2.9633254434843077
 10.2401822695455991  8.4287993295236276  2.9633254434843077
  7.7634416531480488  8.4329955044806511  2.9633254434843077
 11.4884936539630385  9.1252952677477435  2.9633254434843077
  6.5175026400923954  9.1337681470128071  2.9633254434843077
 10.2283631714876897  6.9891637035336647  2.9633254434843077
  7.7703624816264290  6.9933181921187852  2.9633254434843077
  8.9982198897357062  6.3111630101584586  2.9633254434843077
 12.6805504344172615  8.3675676999858375  2.9633254434843077
  5.3228811655853150  8.3800161175994834  2.9633254434843077
 11.4585603880701647  6.2826718513410524  2.9633254434843077
  6.5378160575117708  6.2909551954685110  2.9633254434843077
 12.6610784017291955  6.9705051954049768  2.9633254434843077
  5.3376501963469387  6.9828826480875694  2.9633254434843077
  6.8615237088131469 17.5344582126265038  2.9633254434843077
  9.0209067545783217 18.7656099779529484  2.9633254434843077
 11.1751087225953256 17.5274951124068537  2.9633254434843077
  4.3783100875796777 13.2610982093239578  2.9633254434843077
  4.3582066101300327 10.8225741167076990  2.9633254434843077
  6.5532524891530404  5.1988443358988921  2.9633254434843077
  4.3922455156806528  6.4366824478825766  2.9633254434843077
  4.3585430901931694  8.8862640085957878  2.9633254434843077
 12.4103020454732249 15.3787405794349716  2.9633254434843077
 13.6418679523504878 13.2451713363433772  2.9633254434843077
 13.6534333137219264 10.8065190067973340  2.9633254434843077
  5.6178715175713299 15.3901757215313211  2.9633254434843077
 13.6466183423680416  8.8704907671261992  2.9633254434843077
 13.6046556249233408  6.4211584642550665  2.9633254434843077
 11.4393889435205480  5.1906295554528672  2.9633254434843077
  8.9963904610327265  5.2178385467139430  2.9633254434843077
