 C  H                                   
   1.00000000000000     
    18.0000000000000000    0.0000000000000000    0.0000000000000000
     0.0000000000000000   24.0000000000000000    0.0000000000000000
     0.0000000000000000    0.0000000000000000   17.9999999999999964
  C             H           
              36              16
Direct
  0.5005875464712554  0.5592794881082742  0.1646291913046838
  0.5007389159491458  0.6185233239777588  0.1646291913046838
  0.5691003749746508  0.5294069867606842  0.1646291913046838
  0.4319272669280864  0.5295876570199152  0.1646291913046838
  0.5697137861653053  0.6485026015941795  0.1646291913046838
  0.4319086915742886  0.6486762634086727  0.1646291913046838
  0.6376490392604707  0.5597920227871183  0.1646291913046838
  0.3635228819873663  0.5601437038616599  0.1646291913046838
  0.6367341886123332  0.6181482338375569  0.1646291913046838
  0.3647338119079413  0.6185060884030050  0.1646291913046838
  0.5693292430259707  0.4699376617946585  0.1646291913046838
  0.4314169513444400  0.4701157985216023  0.1646291913046838
  0.5003037197585560  0.4403382740503661  0.1646291913046838
  0.5682367863359656  0.7076202325785544  0.1646291913046838
  0.4337010034982858  0.7077896589936206  0.1646291913046838
  0.7053935211366864  0.5290184493511105  0.1646291913046838
  0.2956252752246243  0.5295537745785512  0.1646291913046838
  0.6382578118226110  0.4404842661260324  0.1646291913046838
  0.3623482258970349  0.4408385954402408  0.1646291913046838
  0.5010348231513837  0.7364069335478007  0.1646291913046838
  0.7052983206031788  0.4718984993593263  0.1646291913046838
  0.2954519547423778  0.4724281289436383  0.1646291913046838
  0.5001675954088786  0.3809246926842886  0.1646291913046838
  0.5688990149747555  0.3511999720634845  0.1646291913046838
  0.4313023140637805  0.3513748126866938  0.1646291913046838
  0.6382496474423910  0.3802206361561560  0.1646291913046838
  0.3620834800051331  0.3805736727922003  0.1646291913046838
  0.5682423984159828  0.2912151543139027  0.1646291913046838
  0.4316868045348016  0.2913882580049494  0.1646291913046838
  0.4999011049853170  0.2629651254232691  0.1646291913046838
  0.7044750241342923  0.3486486541660766  0.1646291913046838
  0.2957156203102953  0.3491673382333118  0.1646291913046838
  0.6365866882261203  0.2617779938058772  0.1646291913046838
  0.3632120031950984  0.2621231331445213  0.1646291913046838
  0.7033932445405109  0.2904377164752074  0.1646291913046838
  0.2965361220192744  0.2909534436703154  0.1646291913046838
  0.3811957616007304  0.7306024255261043  0.1646291913046838
  0.5011614863654623  0.7819004157480395  0.1646291913046838
  0.6208393734775181  0.7303122963502856  0.1646291913046838
  0.2432394493099821  0.5525457587218315  0.1646291913046838
  0.2421225894516685  0.4509405881961541  0.1646291913046838
  0.3640695827307245  0.2166185139957872  0.1646291913046838
  0.2440136397600363  0.2681951019951074  0.1646291913046838
  0.2421412827885094  0.3702610003581578  0.1646291913046838
  0.6894612247485125  0.6407808574764572  0.1646291913046838
  0.7578815529083605  0.5518821390143074  0.1646291913046838
  0.7585240729845515  0.4502716252832223  0.1646291913046838
  0.3121039731984072  0.6412573217304717  0.1646291913046838
  0.7581454634648912  0.3696037819635916  0.1646291913046838
  0.7558142013846301  0.2675482693439611  0.1646291913046838
  0.6355216079733638  0.2162762314772028  0.1646291913046838
  0.4997994700573737  0.2174099394464143  0.1646291913046838
 
  0.00000000E+00  0.00000000E+00  0.00000000E+00
  0.00000000E+00  0.00000000E+00  0.00000000E+00
  0.00000000E+00  0.00000000E+00  0.00000000E+00
  0.00000000E+00  0.00000000E+00  0.00000000E+00
  0.00000000E+00  0.00000000E+00  0.00000000E+00
  0.00000000E+00  0.00000000E+00  0.00000000E+00
  0.00000000E+00  0.00000000E+00  0.00000000E+00
  0.00000000E+00  0.00000000E+00  0.00000000E+00
  0.00000000E+00  0.00000000E+00  0.00000000E+00
  0.00000000E+00  0.00000000E+00  0.00000000E+00
  0.00000000E+00  0.00000000E+00  0.00000000E+00
  0.00000000E+00  0.00000000E+00  0.00000000E+00
  0.00000000E+00  0.00000000E+00  0.00000000E+00
  0.00000000E+00  0.00000000E+00  0.00000000E+00
  0.00000000E+00  0.00000000E+00  0.00000000E+00
  0.00000000E+00  0.00000000E+00  0.00000000E+00
  0.00000000E+00  0.00000000E+00  0.00000000E+00
  0.00000000E+00  0.00000000E+00  0.00000000E+00
  0.00000000E+00  0.00000000E+00  0.00000000E+00
  0.00000000E+00  0.00000000E+00  0.00000000E+00
  0.00000000E+00  0.00000000E+00  0.00000000E+00
  0.00000000E+00  0.00000000E+00  0.00000000E+00
  0.00000000E+00  0.00000000E+00  0.00000000E+00
  0.00000000E+00  0.00000000E+00  0.00000000E+00
  0.00000000E+00  0.00000000E+00  0.00000000E+00
  0.00000000E+00  0.00000000E+00  0.00000000E+00
  0.00000000E+00  0.00000000E+00  0.00000000E+00
  0.00000000E+00  0.00000000E+00  0.00000000E+00
  0.00000000E+00  0.00000000E+00  0.00000000E+00
  0.00000000E+00  0.00000000E+00  0.00000000E+00
  0.00000000E+00  0.00000000E+00  0.00000000E+00
  0.00000000E+00  0.00000000E+00  0.00000000E+00
  0.00000000E+00  0.00000000E+00  0.00000000E+00
  0.00000000E+00  0.00000000E+00  0.00000000E+00
  0.00000000E+00  0.00000000E+00  0.00000000E+00
  0.00000000E+00  0.00000000E+00  0.00000000E+00
  0.00000000E+00  0.00000000E+00  0.00000000E+00
  0.00000000E+00  0.00000000E+00  0.00000000E+00
  0.00000000E+00  0.00000000E+00  0.00000000E+00
  0.00000000E+00  0.00000000E+00  0.00000000E+00
  0.00000000E+00  0.00000000E+00  0.00000000E+00
  0.00000000E+00  0.00000000E+00  0.00000000E+00
  0.00000000E+00  0.00000000E+00  0.00000000E+00
  0.00000000E+00  0.00000000E+00  0.00000000E+00
  0.00000000E+00  0.00000000E+00  0.00000000E+00
  0.00000000E+00  0.00000000E+00  0.00000000E+00
  0.00000000E+00  0.00000000E+00  0.00000000E+00
  0.00000000E+00  0.00000000E+00  0.00000000E+00
  0.00000000E+00  0.00000000E+00  0.00000000E+00
  0.00000000E+00  0.00000000E+00  0.00000000E+00
  0.00000000E+00  0.00000000E+00  0.00000000E+00
  0.00000000E+00  0.00000000E+00  0.00000000E+00
