 N  C  H                                
   1.00000000000000     
    15.0000000000000000    0.0000000000000000    0.0000000000000000
     0.0000000000000000   15.0000000000000000    0.0000000000000000
     0.0000000000000000    0.0000000000000000   18.0000000000000000
   N    C    H 
     1     5     5
Direct
  0.4486399999999975  0.3955266666666688  0.1666666666666643
  0.5405933333333337  0.5547933333333361  0.1666666666666643
  0.5876066666666659  0.4736533333333313  0.1666666666666643
  0.4468133333333313  0.5549400000000020  0.1666666666666643
  0.5391866666666658  0.3932599999999979  0.1666666666666643
  0.4014066666666665  0.4728066666666635  0.1666666666666643
  0.5746800000000007  0.6138333333333321  0.1666666666666643
  0.6557400000000015  0.4731799999999993  0.1666666666666643
  0.4123400000000004  0.6137066666666655  0.1666666666666643
  0.5715266666666636  0.3333333333333357  0.1666666666666643
  0.3333333333333357  0.4708533333333307  0.1666666666666643
 
  0.00000000E+00  0.00000000E+00  0.00000000E+00
  0.00000000E+00  0.00000000E+00  0.00000000E+00
  0.00000000E+00  0.00000000E+00  0.00000000E+00
  0.00000000E+00  0.00000000E+00  0.00000000E+00
  0.00000000E+00  0.00000000E+00  0.00000000E+00
  0.00000000E+00  0.00000000E+00  0.00000000E+00
  0.00000000E+00  0.00000000E+00  0.00000000E+00
  0.00000000E+00  0.00000000E+00  0.00000000E+00
  0.00000000E+00  0.00000000E+00  0.00000000E+00
  0.00000000E+00  0.00000000E+00  0.00000000E+00
  0.00000000E+00  0.00000000E+00  0.00000000E+00
